
Log started (V12.10.0.0) Fri Apr 23 08:23:01 2021


Problem 'asset.lp' read.
Read time = 0.01 sec. (0.90 ticks)
New value for default parallel thread count: 1
New value for time limit in seconds: 150
Version identifier: 12.10.0.0 | 2019-11-26 | 843d4de
CPXPARAM_Threads                                 1
CPXPARAM_TimeLimit                               150
Found incumbent of value 0.000000 after 0.00 sec. (0.22 ticks)
Tried aggregator 3 times.
MIP Presolve eliminated 4089 rows and 472 columns.
MIP Presolve modified 5885 coefficients.
Aggregator did 2296 substitutions.
Reduced MIP has 2595 rows, 3259 columns, and 14641 nonzeros.
Reduced MIP has 2828 binaries, 363 generals, 0 SOSs, and 0 indicators.
Presolve time = 0.03 sec. (32.89 ticks)
Probing fixed 145 vars, tightened 28 bounds.
Probing time = 0.03 sec. (19.39 ticks)
Cover probing fixed 0 vars, tightened 21 bounds.
Tried aggregator 2 times.
Detecting symmetries...
MIP Presolve eliminated 272 rows and 216 columns.
MIP Presolve modified 214 coefficients.
Aggregator did 1 substitutions.
Reduced MIP has 2322 rows, 3042 columns, and 12933 nonzeros.
Reduced MIP has 2640 binaries, 335 generals, 0 SOSs, and 0 indicators.
Presolve time = 0.02 sec. (20.46 ticks)
Probing time = 0.00 sec. (3.26 ticks)
Clique table members: 8735.
MIP emphasis: balance optimality and feasibility.
MIP search method: dynamic search.
Parallel mode: none, using 1 thread.
Root relaxation solution time = 0.10 sec. (150.56 ticks)

        Nodes                                         Cuts/
   Node  Left     Objective  IInf  Best Integer    Best Bound    ItCnt     Gap

*     0+    0                            0.0000     1150.0000              --- 
      0     0      984.6310   362        0.0000      984.6310     1729     --- 
      0     0      970.8669   362        0.0000     Cuts: 680     2820     --- 
      0     0      963.1225   362        0.0000     Cuts: 680     6686     --- 
      0     0      958.9199   362        0.0000     Cuts: 680     8304     --- 
      0     0      957.5712   362        0.0000     Cuts: 680     9274     --- 
      0     0      955.4558   362        0.0000     Cuts: 680    10331     --- 
Detecting symmetries...
      0     0      953.8903   362        0.0000     Cuts: 680    11590     --- 
      0     0      953.4610   362        0.0000     Cuts: 680    12840     --- 
      0     0      953.1006   362        0.0000     Cuts: 680    13661     --- 
      0     0      951.2467   362        0.0000     Cuts: 631    15996     --- 
      0     0      951.2467   362        0.0000     Cuts: 680    16694     --- 
      0     0      950.8927   362        0.0000     Cuts: 110    18288     --- 
      0     0      950.8801   362        0.0000     Cuts: 680    20105     --- 
*     0+    0                          360.0000      950.8801           164.13%
*     0+    0                          415.0000      950.8801           129.13%
*     0+    0                          445.0000      950.8801           113.68%
      0     0        cutoff            445.0000      950.8801    20105  113.68%
Detecting symmetries...
      0     2      950.8801   372      445.0000      950.7846    20105  113.66%
Elapsed time = 5.86 sec. (7825.08 ticks, tree = 0.01 MB, solutions = 3)
      2     4      941.8920   410      445.0000      941.8920    22928  111.66%
     16    18      923.6811   306      445.0000      941.8920    25172  111.66%
     27    29      914.5854   318      445.0000      941.8920    27955  111.66%
     30    32      915.5614   277      445.0000      941.8920    29913  111.66%
     41    43      908.0738   279      445.0000      941.8920    32041  111.66%
     49    51      875.5753   283      445.0000      941.8920    34476  111.66%
     59    61      845.5056   209      445.0000      941.8920    36058  111.66%
     96    80      799.9133   174      445.0000      941.8920    37412  111.66%
    145   118      618.9420    86      445.0000      941.8920    39704  111.66%
*   236   188      integral     0      470.0000      941.8920    41168  100.40%
    246   197      919.2652   342      470.0000      941.8920    45997  100.40%
Elapsed time = 8.26 sec. (11332.08 ticks, tree = 1.47 MB, solutions = 4)
    295   240      833.6811   244      470.0000      941.8920    53127  100.40%
*   469   367      integral     0      485.0000      941.8920    58173   94.20%
    471   369      933.7902   348      485.0000      941.8822    59724   94.20%
    509   407      914.6496   327      485.0000      941.8822    65352   94.20%
    566   464      885.3958   302      485.0000      941.8822    70421   94.20%
*   569+  462                          500.0000      941.8822            88.38%
    612   507      930.8548   409      500.0000      941.8822    76720   88.38%
    642   537      925.3976   315      500.0000      941.8822    81248   88.38%
    680   575      885.3873   323      500.0000      941.8822    86952   88.38%
    720   615      867.7954   261      500.0000      941.8822    92986   88.38%
    800   695      825.7509   266      500.0000      941.8822    98742   88.38%
    807   702      921.6609   362      500.0000      941.8822   104315   88.38%
Elapsed time = 14.72 sec. (21231.53 ticks, tree = 6.35 MB, solutions = 6)
    840   735      823.9850   261      500.0000      941.8822   110834   88.38%

Performing restart 1

Repeating presolve.
Tried aggregator 1 time.
MIP Presolve eliminated 6 rows and 6 columns.
MIP Presolve modified 3860 coefficients.
Reduced MIP has 2316 rows, 3036 columns, and 11033 nonzeros.
Reduced MIP has 2634 binaries, 335 generals, 0 SOSs, and 0 indicators.
Presolve time = 0.01 sec. (10.11 ticks)
Tried aggregator 1 time.
Reduced MIP has 2316 rows, 3036 columns, and 11033 nonzeros.
Reduced MIP has 2634 binaries, 335 generals, 0 SOSs, and 0 indicators.
Presolve time = 0.01 sec. (7.51 ticks)
Represolve time = 0.08 sec. (54.68 ticks)
    936     0      904.3423   472      500.0000     Cuts: 553   125525   80.87%
    936     0      889.8739   472      500.0000     Cuts: 404   126733   77.97%
    936     0      879.4717   472      500.0000     Cuts: 442   128163   75.89%
*   936+    0                          510.0000      879.4717            72.45%
    936     0        cutoff            510.0000      879.4717   128163   72.45%
    936     0      874.3468   472      510.0000     Cuts: 356   129291   71.44%
    936     0      868.1947   472      510.0000     Cuts: 322   130650   70.23%
    936     0      865.9061   472      510.0000     Cuts: 328   132214   69.79%
*   936+    0                          535.0000      865.9061            61.85%
    936     0      862.5865   472      535.0000     Cuts: 304   133070   61.23%
    936     0      860.5446   472      535.0000     Cuts: 319   134065   60.85%
    936     0      858.8130   472      535.0000     Cuts: 236   135731   60.53%
    936     0      858.3542   472      535.0000     Cuts: 271   136384   60.44%
    936     0      856.8070   472      535.0000     Cuts: 196   137319   60.15%
    936     0      855.7388   472      535.0000     Cuts: 164   137912   59.95%
    936     0      854.6600   472      535.0000     Cuts: 231   138466   59.75%
    936     0      853.4995   472      535.0000     Cuts: 186   138953   59.53%
    936     0      852.2172   472      535.0000     Cuts: 234   139564   59.29%
    936     0      851.2630   472      535.0000     Cuts: 243   140284   59.11%
    936     0      850.7878   472      535.0000     Cuts: 235   140866   59.03%
    936     0      850.4606   472      535.0000     Cuts: 207   141345   58.96%
    936     0      850.2918   472      535.0000     Cuts: 119   141658   58.93%
    936     0      849.7315   472      535.0000     Cuts: 121   142163   58.83%
    936     0      849.4507   472      535.0000     Cuts: 155   142504   58.78%
    936     0      849.1580   472      535.0000     Cuts: 105   142969   58.72%
    936     0      848.9301   472      535.0000     Cuts: 160   143431   58.68%
    936     0      848.8441   472      535.0000     Cuts: 108   143649   58.66%
    936     0      848.7503   472      535.0000     Cuts: 115   144013   58.64%
    936     0      847.9735   472      535.0000     Cuts: 123   144437   58.50%
    936     0      847.0015   472      535.0000     Cuts: 136   145138   58.32%
    936     0      846.8727   472      535.0000     Cuts: 151   145415   58.29%
    936     0      846.8233   472      535.0000      Cuts: 85   145666   58.28%
    936     2      846.8233   478      535.0000      846.8160   145666   58.28%
    938     4      840.1139   415      535.0000      846.3963   147869   58.20%
    940     6      839.3248   397      535.0000      846.3963   149775   58.20%
    943     9      836.4845   404      535.0000      846.3963   154235   58.20%
    946    12      834.0036   393      535.0000      846.3963   155314   58.20%
    951    17      831.5302   374      535.0000      846.3963   158321   58.20%
    955    20      798.9587   320      535.0000      846.3963   161559   58.20%
    962    25      776.5702   270      535.0000      846.3963   164155   58.20%
    967    30      749.7933   254      535.0000      846.3963   170158   58.20%
Elapsed time = 41.05 sec. (57173.03 ticks, tree = 0.37 MB, solutions = 8)
    972    31      842.2821   415      535.0000      844.5238   174414   57.85%
    975    34      840.3616   415      535.0000      844.5238   179256   57.85%
    980    39      837.0953   397      535.0000      844.5238   181497   57.85%
    983    42      823.2087   382      535.0000      844.5238   185141   57.85%
    989    48      822.8773   351      535.0000      844.5238   189455   57.85%
    997    56      822.5910   336      535.0000      844.5238   193377   57.85%
   1004    63      831.0483   370      535.0000      844.5238   196270   57.85%
   1008    67      810.1735   338      535.0000      844.5238   201595   57.85%
   1011    70      809.4052   340      535.0000      844.5238   205190   57.85%
   1016    75      807.0312   351      535.0000      844.5238   207761   57.85%
Elapsed time = 48.02 sec. (68159.26 ticks, tree = 0.78 MB, solutions = 8)
   1023    82      793.5222   306      535.0000      844.5238   211436   57.85%
   1033    91      779.9811   294      535.0000      844.5238   215127   57.85%
   1040    96      756.1480   249      535.0000      844.5238   217950   57.85%
   1054   109      748.8683   248      535.0000      844.5238   223065   57.85%
   1063   117      732.5027   238      535.0000      844.5238   227532   57.85%
   1094   144      690.6293   168      535.0000      844.5238   231140   57.85%
   1117   160      833.8073   442      535.0000      842.2653   234750   57.43%
   1134   177      824.5334   375      535.0000      842.2653   238093   57.43%
   1145   188      816.5169   318      535.0000      842.2653   240435   57.43%
   1172   215      806.7422   320      535.0000      842.2653   243774   57.43%
Elapsed time = 54.94 sec. (78861.83 ticks, tree = 2.28 MB, solutions = 8)
   1192   235      748.4534   283      535.0000      842.2653   246634   57.43%
   1225   264        cutoff            535.0000      842.2653   250341   57.43%
   1226   265      829.7097   406      535.0000      842.1272   252741   57.41%
   1236   275      820.8616   383      535.0000      842.1272   256085   57.41%
   1257   296      805.3311   325      535.0000      842.1272   261533   57.41%
   1294   333      790.1654   290      535.0000      842.1272   265872   57.41%
   1330   369      744.9043   250      535.0000      842.1272   268955   57.41%
   1390   427      705.3551   178      535.0000      842.1272   272637   57.41%
   1421   452      823.5344   445      535.0000      841.2765   275113   57.25%
   1437   468      805.6233   364      535.0000      841.2765   279199   57.25%
Elapsed time = 62.11 sec. (89916.92 ticks, tree = 6.88 MB, solutions = 8)
   1474   505      792.2985   323      535.0000      841.2765   283626   57.25%
   1518   548      690.4228   222      535.0000      841.2765   287684   57.25%
   1520   548      833.3069   435      535.0000      840.2937   290504   57.06%
   1525   553      816.2446   395      535.0000      840.2937   292884   57.06%
   1535   563      813.4344   342      535.0000      840.2937   296266   57.06%
   1542   570      803.3534   325      535.0000      840.2937   298720   57.06%
   1557   585      798.4518   339      535.0000      840.2937   302581   57.06%
   1573   601      791.9930   281      535.0000      840.2937   307188   57.06%
   1594   620      760.1458   243      535.0000      840.2937   312957   57.06%
   1609   635      735.6691   206      535.0000      840.2937   317652   57.06%
Elapsed time = 68.99 sec. (100190.30 ticks, tree = 9.13 MB, solutions = 8)
   1627   647      828.4007   409      535.0000      838.7263   322495   56.77%
   1639   659      815.6148   375      535.0000      838.7263   325620   56.77%
   1666   686      803.4783   344      535.0000      838.7263   328794   56.77%
   1690   710      759.2579   276      535.0000      838.7263   333352   56.77%
   1719   735      830.0641   428      535.0000      838.5639   339397   56.74%
   1735   751      814.8758   364      535.0000      838.5639   343440   56.74%
   1738   754      814.4321   383      535.0000      838.5639   343992   56.74%
   1754   770      803.1372   335      535.0000      838.5639   348665   56.74%
   1776   792      774.0101   278      535.0000      838.5639   352295   56.74%
   1801   813      822.5556   397      535.0000      838.0665   356791   56.65%
Elapsed time = 77.04 sec. (111959.12 ticks, tree = 11.56 MB, solutions = 8)
   1817   829      808.6577   369      535.0000      838.0665   360948   56.65%
   1843   855      791.6381   306      535.0000      838.0665   366131   56.65%
   1856   868      769.6912   277      535.0000      838.0665   369983   56.65%
   1886   896      747.3602   239      535.0000      838.0665   375111   56.65%
   1889   895      832.2575   377      535.0000      836.7350   380935   56.40%
   1896   902      828.4296   404      535.0000      836.7350   383489   56.40%
   1904   910      823.9498   393      535.0000      836.7350   387318   56.40%
   1910   916      802.1916   342      535.0000      836.7350   391143   56.40%
   1918   924      794.9634   340      535.0000      836.7350   394787   56.40%
   1934   940      789.3902   328      535.0000      836.7350   398338   56.40%
Elapsed time = 84.47 sec. (122764.13 ticks, tree = 11.79 MB, solutions = 8)
   1953   959      753.8075   265      535.0000      836.7350   402613   56.40%
   1974   980      687.4384   209      535.0000      836.7350   406889   56.40%
   1983   985      822.9386   398      535.0000      836.4845   409672   56.35%
   1991   993      810.4125   370      535.0000      836.4845   413112   56.35%
   1997   999      796.1890   354      535.0000      836.4845   416609   56.35%
   2013  1015      783.2870   296      535.0000      836.4845   420973   56.35%
   2036  1038      750.5668   239      535.0000      836.4845   425212   56.35%
   2056  1058      717.6616   217      535.0000      836.4845   429005   56.35%
   2128  1105      631.2023   106      535.0000      836.4845   433697   56.35%
   2205  1170      682.7830   172      535.0000      836.3660   449061   56.33%
Elapsed time = 93.27 sec. (135687.35 ticks, tree = 16.29 MB, solutions = 8)
   2296  1255      750.1889   255      535.0000      834.9131   461926   56.06%
   2398  1353      768.1998   283      535.0000      834.8600   477052   56.05%
   2448  1399      792.3303   365      535.0000      834.2450   489250   55.93%
   2539  1486      796.2670   354      535.0000      834.1690   506768   55.92%
   2616  1561      703.2141   236      535.0000      834.1690   525359   55.92%
   2701  1628      723.1919   281      535.0000      834.0684   543200   55.90%
   2858  1775      826.0928   402      535.0000      833.9919   561039   55.89%
*  2936+ 1851                          540.0000      833.9919            54.44%
   2979  1892      595.0000    72      540.0000      833.9919   578605   54.44%
   3102  2006      642.7393   156      540.0000      833.9918   594625   54.44%
   3147  2045      742.0012   291      540.0000      833.7928   610101   54.41%
Elapsed time = 120.48 sec. (175134.25 ticks, tree = 30.58 MB, solutions = 9)
   3259  2135      812.9067   393      540.0000      833.5024   624856   54.35%
   3337  2207      810.2357   437      540.0000      833.3930   637510   54.33%
   3445  2311      823.0771   364      540.0000      833.3048   655073   54.32%
   3504  2370      698.3498   258      540.0000      833.3048   670630   54.32%
   3591  2449      760.2633   294      540.0000      833.2225   686289   54.30%
Starting limited solution polishing.
   3636  2490      790.1076   372      540.0000      833.2173   704729   54.30%
   3688  2542      742.3157   307      540.0000      833.2173   723835   54.30%
*  3736+ 2581                          545.0000      832.8832            52.82%
*  3736+ 2580                          550.0000      832.8832            51.43%
*  3736+ 2579                          555.0000      832.8832            50.07%
   3736  2581      787.2567   354      555.0000      832.8832   734901   50.07%
*  3836+ 2671                          560.0000      832.3181            48.63%
   3836  2673      820.6694   382      560.0000      832.3181   750380   48.63%
   3920  2749      824.1203   438      560.0000      832.3111   770382   48.63%
Elapsed time = 148.74 sec. (215207.10 ticks, tree = 45.36 MB, solutions = 13)
Advanced basis not built.

GUB cover cuts applied:  130
Clique cuts applied:  140
Cover cuts applied:  42
Implied bound cuts applied:  96
Flow cuts applied:  26
Mixed integer rounding cuts applied:  209
Zero-half cuts applied:  137
Lift and project cuts applied:  25
Gomory fractional cuts applied:  10

Root node processing (before b&c):
  Real time             =    5.85 sec. (7812.29 ticks)
Sequential b&c:
  Real time             =  144.16 sec. (209108.27 ticks)
                          ------------
Total (root+branch&cut) =  150.00 sec. (216920.56 ticks)

Solution pool: 14 solutions saved.

MIP - Time limit exceeded, integer feasible:  Objective =  5.6000000000e+02
Current MIP best bound =  8.3231107392e+02 (gap = 272.311, 48.63%)
Solution time =  150.00 sec.  Iterations = 777083  Nodes = 3936 (2764)
Deterministic time = 216920.57 ticks  (1446.11 ticks/sec)


Incumbent solution
Variable Name           Solution Value
F                           560.000000
y36                           1.000000
y147                          1.000000
y223                          1.000000
y106                          1.000000
y68                           1.000000
y26                           1.000000
y74                           1.000000
y4                            1.000000
y69                           1.000000
y210                          1.000000
y51                           1.000000
y216                          1.000000
y94                           1.000000
y113                          1.000000
y219                          1.000000
y14                           1.000000
y193                          1.000000
y13                           1.000000
y117                          1.000000
y124                          1.000000
y49                           1.000000
y16                           1.000000
y240                          1.000000
y9                            1.000000
y199                          1.000000
y242                          1.000000
y194                          1.000000
y56                           1.000000
y28                           1.000000
y88                           1.000000
y95                           1.000000
x65x69x1                      1.000000
x65x219x1                     1.000000
x245x106x1                    1.000000
x108x147x1                    1.000000
x53x223x1                     1.000000
x93x223x1                     1.000000
x176x219x1                    1.000000
x70x216x1                     2.000000
x207x36x2                     2.000000
x138x4x2                      1.000000
x231x210x2                    2.000000
x176x13x2                     1.000000
x136x106x2                    1.000000
x111x74x2                     2.000000
x19x69x3                      1.000000
x19x13x3                      1.000000
x41x68x3                      1.000000
x245x68x3                     1.000000
x108x147x3                    1.000000
x138x113x3                    1.000000
x53x26x3                      1.000000
x93x26x3                      1.000000
x136x4x3                      1.000000
x36x94x2                      2.000000
x147x14x1                     1.000000
x147x113x3                    1.000000
x223x193x1                    1.000000
x223x124x1                    1.000000
x106x117x1                    1.000000
x106x117x2                    1.000000
x68x51x3                      2.000000
x26x16x3                      1.000000
x26x199x3                     1.000000
x74x240x2                     2.000000
x4x194x2                      1.000000
x4x193x3                      1.000000
x69x56x1                      1.000000
x69x49x3                      1.000000
x210x14x2                     1.000000
x210x124x2                    1.000000
x51x88x3                      1.000000
x51x95x3                      1.000000
x216x16x1                     1.000000
x216x242x1                    1.000000
x94x49x2                      1.000000
x94x88x2                      1.000000
x113x9x3                      2.000000
x219x0x1                      1.000000
x219x194x1                    1.000000
x14x56x1                      1.000000
x14x199x2                     1.000000
x193x0x1                      1.000000
x193x0x3                      1.000000
x13x95x2                      1.000000
x13x242x3                     1.000000
x117x28x1                     1.000000
x117x28x2                     1.000000
x124x0x1                      1.000000
x124x0x2                      1.000000
x49x0x2                       1.000000
x49x0x3                       1.000000
x16x0x1                       1.000000
x16x0x3                       1.000000
x240x0x2                      2.000000
x9x0x3                        2.000000
x199x0x2                      1.000000
x199x0x3                      1.000000
x242x0x1                      1.000000
x242x0x3                      1.000000
x194x0x1                      1.000000
x194x0x2                      1.000000
x56x0x1                       2.000000
x28x0x1                       1.000000
x28x0x2                       1.000000
x88x0x2                       1.000000
x88x0x3                       1.000000
x95x0x2                       1.000000
x95x0x3                       1.000000
s19                           5.871771
s135                          7.600000
s4                            7.608019
s215                          6.780000
s69                           7.553999
z19z69z3                      1.000000
s73                           6.890000
s85                           7.930000
s140                          6.970000
s169                          7.010000
s51                           7.800808
s113                          7.768340
z19z113z3                     1.000000
s186                          7.230000
s220                          8.520000
s134                          8.530000
s193                          8.710000
s13                           7.865332
z19z13z3                      1.000000
s49                           9.047740
s16                           9.124227
s55                           9.330000
z19z55z3                      1.000000
s9                            9.410000
z19z9z3                       1.000000
s199                          9.410000
s242                          9.420000
s58                           9.450000
s88                           9.480000
s95                           9.500000
s65                           6.233241
s98                           6.650000
z65z69z1                      1.000000
s201                          6.920000
s161                          7.940000
s155                          8.010000
s180                          8.010000
s216                          7.623206
z65z216z1                     1.000000
s219                          7.613167
z65z219z1                     1.000000
s14                           8.210000
s78                           8.440000
s117                          8.147351
s124                          8.448901
s233                          8.362313
z65z233z1                     1.000000
s11                           9.310000
s227                          9.340000
s96                           9.390000
s158                          9.206949
z65z158z1                     1.000000
s159                          9.400000
z65z159z1                     1.000000
s194                          9.440000
s56                           9.450000
z65z56z1                      1.000000
s115                          9.450000
s28                           9.460000
s41                           4.568880
s213                          5.320000
s178                          6.478344
s7                            5.700000
s151                          5.860000
s147                          6.515358
s101                          6.898627
s234                          6.030000
s68                           6.690455
z41z68z3                      1.000000
s123                          6.440000
z41z123z3                     1.000000
s26                           7.171911
z41z26z3                      1.000000
z41z73z3                      1.000000
z41z85z3                      1.000000
z41z140z3                     1.000000
z41z169z3                     1.000000
z41z51z3                      1.000000
z41z113z3                     1.000000
z41z55z3                      1.000000
z41z9z3                       1.000000
s207                          4.718120
s36                           6.211192
z207z36z2                     1.000000
s100                          5.470000
s33                           6.676932
s43                           6.040000
s82                           6.050000
s204                          6.180000
s106                          6.437296
s160                          6.290000
s74                           7.433989
z207z74z2                     1.000000
s103                          7.460000
z207z103z2                    1.000000
s92                           6.540000
s210                          7.024588
z207z210z2                    1.000000
s122                          8.070000
z207z122z2                    1.000000
s177                          7.110000
z207z177z2                    1.000000
s94                           7.825829
z207z94z2                     1.000000
s189                          8.010000
z207z189z2                    1.000000
s23                           9.080000
z207z23z2                     1.000000
s104                          8.110000
z207z104z2                    1.000000
s86                           9.180000
z207z86z2                     1.000000
s157                          9.220000
z207z157z2                    1.000000
s32                           9.310000
z207z32z2                     1.000000
s116                          9.380000
z207z116z2                    1.000000
s240                          9.095809
z207z240z2                    1.000000
s245                          4.796980
s187                          5.810000
s200                          6.040000
s223                          7.000447
s185                          7.018811
z245z106z1                    1.000000
s209                          7.143739
z245z68z3                     1.000000
z245z98z1                     1.000000
z245z73z3                     1.000000
z245z85z3                     1.000000
z245z140z3                    1.000000
z245z169z3                    1.000000
z245z51z3                     1.000000
z245z216z1                    1.000000
z245z113z3                    1.000000
z245z219z1                    1.000000
z245z233z1                    1.000000
z245z55z3                     1.000000
z245z158z1                    1.000000
z245z159z1                    1.000000
z245z9z3                      1.000000
z245z56z1                     1.000000
s108                          4.865180
z108z147z1                    1.000000
z108z147z3                    1.000000
z108z85z3                     1.000000
z108z140z3                    1.000000
z108z169z3                    1.000000
z108z51z3                     1.000000
z108z216z1                    1.000000
z108z113z3                    1.000000
z108z219z1                    1.000000
z108z233z1                    1.000000
z108z55z3                     1.000000
z108z158z1                    1.000000
z108z159z1                    1.000000
z108z9z3                      1.000000
z108z56z1                     1.000000
s138                          5.340560
z138z4z2                      1.000000
z138z113z3                    1.000000
z138z189z2                    1.000000
z138z23z2                     1.000000
z138z104z2                    1.000000
z138z86z2                     1.000000
z138z157z2                    1.000000
z138z32z2                     1.000000
z138z55z3                     1.000000
z138z116z2                    1.000000
z138z240z2                    1.000000
z138z9z3                      1.000000
s53                           5.396740
z53z223z1                     1.000000
z53z26z3                      1.000000
z53z113z3                     1.000000
z53z233z1                     1.000000
z53z55z3                      1.000000
z53z158z1                     1.000000
z53z159z1                     1.000000
z53z9z3                       1.000000
z53z56z1                      1.000000
s231                          5.213080
z231z210z2                    1.000000
z231z177z2                    1.000000
z231z189z2                    1.000000
z231z23z2                     1.000000
z231z104z2                    1.000000
z231z86z2                     1.000000
z231z157z2                    1.000000
z231z32z2                     1.000000
z231z116z2                    1.000000
z231z240z2                    1.000000
s93                           5.453910
z93z223z1                     1.000000
z93z26z3                      1.000000
z93z113z3                     1.000000
z93z233z1                     1.000000
z93z55z3                      1.000000
z93z158z1                     1.000000
z93z159z1                     1.000000
z93z9z3                       1.000000
z93z56z1                      1.000000
s176                          5.682280
z176z219z1                    1.000000
z176z13z2                     1.000000
z176z189z2                    1.000000
z176z23z2                     1.000000
z176z233z1                    1.000000
z176z104z2                    1.000000
z176z86z2                     1.000000
z176z157z2                    1.000000
z176z32z2                     1.000000
z176z116z2                    1.000000
z176z240z2                    1.000000
z176z158z1                    1.000000
z176z159z1                    1.000000
z176z56z1                     1.000000
s70                           5.872490
z70z216z1                     1.000000
z70z233z1                     1.000000
z70z158z1                     1.000000
z70z159z1                     1.000000
z70z56z1                      1.000000
s136                          5.167470
z136z106z2                    1.000000
z136z4z3                      1.000000
z136z210z2                    1.000000
z136z73z3                     1.000000
z136z85z3                     1.000000
z136z140z3                    1.000000
z136z169z3                    1.000000
z136z51z3                     1.000000
z136z122z2                    1.000000
z136z177z2                    1.000000
z136z94z2                     1.000000
z136z113z3                    1.000000
z136z189z2                    1.000000
z136z23z2                     1.000000
z136z104z2                    1.000000
z136z86z2                     1.000000
z136z157z2                    1.000000
z136z32z2                     1.000000
z136z55z3                     1.000000
z136z116z2                    1.000000
z136z240z2                    1.000000
z136z9z3                      1.000000
s111                          5.730000
z111z74z2                     1.000000
z111z189z2                    1.000000
z111z23z2                     1.000000
z111z104z2                    1.000000
z111z86z2                     1.000000
z111z157z2                    1.000000
z111z32z2                     1.000000
z111z116z2                    1.000000
z111z240z2                    1.000000
z36z94z2                      1.000000
z36z189z2                     1.000000
z36z23z2                      1.000000
z36z104z2                     1.000000
z36z86z2                      1.000000
z36z157z2                     1.000000
z36z32z2                      1.000000
z36z116z2                     1.000000
z36z240z2                     1.000000
s39                           5.380000
z100z189z2                    1.000000
z100z23z2                     1.000000
z100z104z2                    1.000000
z100z86z2                     1.000000
z100z157z2                    1.000000
z100z32z2                     1.000000
z100z116z2                    1.000000
z100z240z2                    1.000000
z178z233z1                    1.000000
z178z55z3                     1.000000
z178z158z1                    1.000000
z178z159z1                    1.000000
z178z9z3                      1.000000
z178z56z1                     1.000000
z7z55z3                       1.000000
z7z9z3                        1.000000
z187z233z1                    1.000000
z187z158z1                    1.000000
z187z159z1                    1.000000
z187z56z1                     1.000000
z151z233z1                    1.000000
z151z159z1                    1.000000
z151z9z3                      1.000000
z151z56z1                     1.000000
z33z86z2                      1.000000
z33z116z2                     1.000000
z147z113z3                    1.000000
z147z14z1                     1.000000
z147z233z1                    1.000000
z147z159z1                    1.000000
z147z9z3                      1.000000
z147z56z1                     1.000000
z101z116z2                    1.000000
z101z9z3                      1.000000
z234z116z2                    1.000000
z234z9z3                      1.000000
z43z116z2                     1.000000
z43z159z1                     1.000000
z43z56z1                      1.000000
z200z159z1                    1.000000
z200z56z1                     1.000000
z82z116z2                     1.000000
z82z159z1                     1.000000
z82z56z1                      1.000000
z223z193z1                    1.000000
z223z124z1                    1.000000
z223z159z1                    1.000000
z223z56z1                     1.000000
z185z159z1                    1.000000
z185z56z1                     1.000000
z204z116z2                    1.000000
z204z159z1                    1.000000
z204z56z1                     1.000000
z106z117z1                    1.000000
z106z117z2                    1.000000
z106z116z2                    1.000000
z106z159z1                    1.000000
z106z56z1                     1.000000
z209z159z1                    1.000000
z209z56z1                     1.000000
z160z116z2                    1.000000
z68z51z3                      1.000000
z68z9z3                       1.000000
z123z9z3                      1.000000
z26z16z3                      1.000000
z26z9z3                       1.000000
z26z199z3                     1.000000
z74z116z2                     1.000000
z74z240z2                     1.000000
z103z116z2                    1.000000
z92z116z2                     1.000000
z135z116z2                    1.000000
z135z9z3                      1.000000
z98z159z1                     1.000000
z98z56z1                      1.000000
z4z193z3                      1.000000
z4z116z2                      1.000000
z4z9z3                        1.000000
z4z194z2                      1.000000
z215z9z3                      1.000000
z215z56z1                     1.000000
z69z49z3                      1.000000
z69z56z1                      1.000000
z210z14z2                     1.000000
z210z124z2                    1.000000
z210z116z2                    1.000000
z73z9z3                       1.000000
z201z56z1                     1.000000
z85z9z3                       1.000000
z161z56z1                     1.000000
z169z9z3                      1.000000
z51z55z3                      1.000000
z51z88z3                      1.000000
z51z95z3                      1.000000
z216z16z1                     1.000000
z216z158z1                    1.000000
z216z242z1                    1.000000
z94z49z2                      1.000000
z94z240z2                     1.000000
z94z88z2                      1.000000
z113z9z3                      1.000000
z219z158z1                    1.000000
z219z194z1                    1.000000
z14z199z2                     1.000000
z14z56z1                      1.000000
z13z242z3                     1.000000
z13z95z2                      1.000000
z117z28z1                     1.000000
z117z28z2                     1.000000
z233z56z1                     1.000000
All other variables in the range 1-6031 are 0.
